c Sudoku solution
p cnf 729 0
135 0
247 0
261 0
285 0
321 0
339 0
372 0
386 0
432 0
469 0
511 0
554 0
579 0
663 0
678 0
696 0
728 0
756 0
775 0
837 0
634 0
845 0
881 0
941 0
731 0
642 0
651 0
687 0
999 0
189 0
259 0
749 0
988 0
212 0
625 0
619 0
915 0
829 0
922 0
964 0
365 0
455 0
567 0
595 0
582 0
957 0
853 0
762 0
868 0
892 0
797 0
152 0
358 0
166 0
177 0
191 0
298 0
118 0
317 0
427 0
538 0
448 0
546 0
416 0
523 0
713 0
936 0
814 0
784 0
973 0
876 0
124 0
143 0
344 0
274 0
393 0
226 0
233 0
471 0
494 0
483 0
